c defined variables: 13 25 29 33 37 41 45 49 53 57 61 65 69 73 77 81 85 89 93 97 101 105 109 113 123 133 137 148 152 156 170 174 178 183 184 186 187 188 192 196 200 204 209 210 212 213 214 218 223 224 228 233 234 244 248 252 256 260 264 268 272 276 285 299 303 304 305 307 308 310 311 312 313 315 316 318 319 320 322 323 325 326 327 328 329 332 333 335 336 337 339 340 342 343 344 345 347 348 350 351 352 354 355 357 358 359 360 361 363 366 367 368 370 371 373 374 375 376 378 379 381 382 383 386 387 388 390 391 392 393 394 395 396 397 398 399 400 401 402 403 404 405 406 407 408 409 410 411 412 413 414 415 416 417 418 419 420 421 422 423 424 425 426 427 428 429 430 431 432 433 434 435 436 437 438 439 440 441 442 443 444 445 446 447 448 449 450 451 452 453 454 455 456 457 458 459 460 461 462 463 464 465 466 467 468 469 470 471 472 473 474 475 477 478 479 480 481 482 483 484 485 487 
p cnf 1646 2010
a 255 251 243 247 68 72 56 64 48 60 40 52 32 44 334 338 259 302 306 309 314 317 321 324 331 271 267 279 275 377 372 362 356 369 365 346 341 353 349 20 36 4 8 24 16 1 28 12 284 5 380 476 21 2 9 17 263 283 288 291 294 207 177 181 162 169 173 159 143 151 155 211 298 147 222 389 185 208 232 182 203 199 195 191 231 227 221 217 237 240 104 96 100 92 88 84 76 80 112 108 116 119 132 126 165 140 136 122 129 146 0
e 3 6 7 10 11 14 15 18 19 22 23 26 27 30 31 34 35 38 39 42 43 46 47 50 51 54 55 58 59 62 63 66 67 70 71 74 75 78 79 82 83 86 87 90 91 94 95 98 99 102 103 106 107 110 111 114 115 117 118 120 121 124 125 127 128 130 131 134 135 138 139 141 142 144 145 149 150 153 154 157 158 160 161 163 164 167 168 171 172 175 176 179 180 189 190 193 194 197 198 201 202 205 206 215 216 219 220 225 226 229 230 235 236 238 239 241 242 245 246 249 250 253 254 257 258 261 262 265 266 269 270 273 274 277 278 281 282 286 287 289 290 292 293 295 296 301 330 364 385 486 13 25 29 33 37 41 45 49 53 57 61 65 69 73 77 81 85 89 93 97 101 105 109 113 123 133 137 148 152 156 170 174 178 183 184 186 187 188 192 196 200 204 209 210 212 213 214 218 223 224 228 233 234 244 248 252 256 260 264 268 272 276 285 299 303 304 305 307 308 310 311 312 313 315 316 318 319 320 322 323 325 326 327 328 329 332 333 335 336 337 339 340 342 343 344 345 347 348 350 351 352 354 355 357 358 359 360 361 363 366 367 368 370 371 373 374 375 376 378 379 381 382 383 386 387 388 390 391 392 393 394 395 396 397 398 399 400 401 402 403 404 405 406 407 408 409 410 411 412 413 414 415 416 417 418 419 420 421 422 423 424 425 426 427 428 429 430 431 432 433 434 435 436 437 438 439 440 441 442 443 444 445 446 447 448 449 450 451 452 453 454 455 456 457 458 459 460 461 462 463 464 465 466 467 468 469 470 471 472 473 474 475 477 478 479 480 481 482 483 484 485 487 1442 1443 1444 1445 1446 1447 1448 1449 1450 1451 1452 1453 1454 1455 1456 1457 1458 1459 1460 1461 1462 1463 1464 1465 1466 1467 1468 1469 1470 1471 1472 1473 1474 1475 1476 1477 1478 1479 1480 1481 1482 1483 1484 1485 1486 1487 1488 1489 1490 1491 1492 1493 1494 1495 1496 1497 1498 1499 1500 1501 1502 1503 1504 1505 1506 1507 1508 1509 1510 1511 1512 1513 1514 1515 1516 1517 1518 1519 1520 1521 1522 1523 1524 1525 1526 1527 1528 1529 1530 1531 1532 1533 1534 1535 1536 1537 1538 1539 1540 1541 1542 1543 1544 1545 1546 1547 1548 1549 1550 1551 1552 1553 1554 1555 1556 1557 1558 1559 1560 1561 1562 1563 1564 1565 1566 1567 1568 1569 1570 1571 1572 1573 1574 1575 1576 1577 1578 1579 1580 1581 1582 1583 1584 1585 1586 1587 1588 1589 1590 1591 1592 1593 1594 1595 1596 1597 1598 1599 1600 1601 1602 1603 1604 1605 1606 1607 1608 1609 1610 1611 1612 1613 1614 1615 1616 1617 1618 1619 1620 1621 1622 1623 1624 1625 1626 1627 1628 1629 1630 1631 1632 1633 1634 1635 1636 1637 1638 1639 1640 1641 1642 1643 1644 1645 1646 0
d 297 181 207 231 165 221 0
d 300 5 237 240 21 0
d 166 162 389 159 140 146 0
d 280 476 2 0
d 384 283 288 279 294 291 0
1443 -13 0
-1443 13 0
1444 -25 0
-1444 25 0
1445 -29 0
-1445 29 0
1446 -33 0
-1446 33 0
1447 -37 0
-1447 37 0
1448 -41 0
-1448 41 0
1449 -45 0
-1449 45 0
1450 -49 0
-1450 49 0
1451 -53 0
-1451 53 0
1452 -57 0
-1452 57 0
1453 -61 0
-1453 61 0
1454 -65 0
-1454 65 0
1455 -69 0
-1455 69 0
1456 -73 0
-1456 73 0
1457 -77 0
-1457 77 0
1458 -81 0
-1458 81 0
1459 -85 0
-1459 85 0
1460 -89 0
-1460 89 0
1461 -93 0
-1461 93 0
1462 -97 0
-1462 97 0
1463 -101 0
-1463 101 0
1464 -105 0
-1464 105 0
1465 -109 0
-1465 109 0
1466 -113 0
-1466 113 0
1467 -123 0
-1467 123 0
1468 -133 0
-1468 133 0
1469 -137 0
-1469 137 0
1470 -148 0
-1470 148 0
1471 -152 0
-1471 152 0
1472 -156 0
-1472 156 0
1473 -170 0
-1473 170 0
1474 -174 0
-1474 174 0
1475 -178 0
-1475 178 0
1476 -183 0
-1476 183 0
1477 -184 0
-1477 184 0
1478 -186 0
-1478 186 0
1479 -187 0
-1479 187 0
-1480 -188 0
1480 188 0
1481 -192 0
-1481 192 0
1482 -196 0
-1482 196 0
1450 -200 0
-1450 200 0
1483 -204 0
-1483 204 0
1484 -209 0
-1484 209 0
1485 -210 0
-1485 210 0
1486 -212 0
-1486 212 0
1487 -213 0
-1487 213 0
-1488 -214 0
1488 214 0
1489 -218 0
-1489 218 0
1490 -223 0
-1490 223 0
1491 -224 0
-1491 224 0
1492 -228 0
-1492 228 0
1493 -233 0
-1493 233 0
1494 -234 0
-1494 234 0
1495 -244 0
-1495 244 0
1496 -248 0
-1496 248 0
1497 -252 0
-1497 252 0
1498 -256 0
-1498 256 0
1462 -260 0
-1462 260 0
1499 -264 0
-1499 264 0
1500 -268 0
-1500 268 0
1501 -272 0
-1501 272 0
1502 -276 0
-1502 276 0
1503 -285 0
-1503 285 0
1504 -299 0
-1504 299 0
1505 -303 0
-1505 303 0
1506 -304 0
-1506 304 0
-1507 -305 0
1507 305 0
1508 -307 0
-1508 307 0
1509 -308 0
-1509 308 0
1510 -310 0
-1510 310 0
1511 -311 0
-1511 311 0
-1512 -312 0
1512 312 0
-1513 -313 0
1513 313 0
1514 -315 0
-1514 315 0
1515 -316 0
-1515 316 0
1516 -318 0
-1516 318 0
1517 -319 0
-1517 319 0
-1518 -320 0
1518 320 0
1519 -322 0
-1519 322 0
1520 -323 0
-1520 323 0
1521 -325 0
-1521 325 0
1522 -326 0
-1522 326 0
-1523 -327 0
1523 327 0
-1524 -328 0
1524 328 0
-1525 -329 0
1525 329 0
1526 -332 0
-1526 332 0
1527 -333 0
-1527 333 0
1528 -335 0
-1528 335 0
1529 -336 0
-1529 336 0
-1530 -337 0
1530 337 0
1531 -339 0
-1531 339 0
1532 -340 0
-1532 340 0
1533 -342 0
-1533 342 0
1534 -343 0
-1534 343 0
-1535 -344 0
1535 344 0
-1536 -345 0
1536 345 0
1537 -347 0
-1537 347 0
1538 -348 0
-1538 348 0
1539 -350 0
-1539 350 0
1540 -351 0
-1540 351 0
-1541 -352 0
1541 352 0
1542 -354 0
-1542 354 0
1543 -355 0
-1543 355 0
1544 -357 0
-1544 357 0
1545 -358 0
-1545 358 0
-1546 -359 0
1546 359 0
-1547 -360 0
1547 360 0
-1548 -361 0
1548 361 0
1549 -363 0
-1549 363 0
1550 -366 0
-1550 366 0
1551 -367 0
-1551 367 0
-1552 -368 0
1552 368 0
1553 -370 0
-1553 370 0
1554 -371 0
-1554 371 0
1555 -373 0
-1555 373 0
1556 -374 0
-1556 374 0
-1557 -375 0
1557 375 0
-1558 -376 0
1558 376 0
1559 -378 0
-1559 378 0
1560 -379 0
-1560 379 0
1561 -381 0
-1561 381 0
1562 -382 0
-1562 382 0
-1563 -383 0
1563 383 0
-1564 -386 0
1564 386 0
-1565 -387 0
1565 387 0
-1566 -388 0
1566 388 0
1567 -390 0
-1567 390 0
1568 -391 0
-1568 391 0
1569 -392 0
-1569 392 0
1570 -393 0
-1570 393 0
-1571 -394 0
1571 394 0
1572 -395 0
-1572 395 0
1573 -396 0
-1573 396 0
1574 -397 0
-1574 397 0
1575 -398 0
-1575 398 0
-1576 -399 0
1576 399 0
-1577 -400 0
1577 400 0
1578 -401 0
-1578 401 0
1579 -402 0
-1579 402 0
1580 -403 0
-1580 403 0
1581 -404 0
-1581 404 0
-1582 -405 0
1582 405 0
1583 -406 0
-1583 406 0
1584 -407 0
-1584 407 0
1585 -408 0
-1585 408 0
1586 -409 0
-1586 409 0
-1587 -410 0
1587 410 0
-1588 -411 0
1588 411 0
-1589 -412 0
1589 412 0
1590 -413 0
-1590 413 0
1591 -414 0
-1591 414 0
1592 -415 0
-1592 415 0
1593 -416 0
-1593 416 0
-1594 -417 0
1594 417 0
1595 -418 0
-1595 418 0
1596 -419 0
-1596 419 0
1597 -420 0
-1597 420 0
1598 -421 0
-1598 421 0
-1599 -422 0
1599 422 0
-1600 -423 0
1600 423 0
1601 -424 0
-1601 424 0
1602 -425 0
-1602 425 0
1603 -426 0
-1603 426 0
1604 -427 0
-1604 427 0
-1605 -428 0
1605 428 0
1606 -429 0
-1606 429 0
1607 -430 0
-1607 430 0
1608 -431 0
-1608 431 0
1609 -432 0
-1609 432 0
-1610 -433 0
1610 433 0
-1611 -434 0
1611 434 0
-1612 -435 0
1612 435 0
-1613 -436 0
1613 436 0
1526 -437 0
-1526 437 0
1614 -438 0
-1614 438 0
1528 -439 0
-1528 439 0
1615 -440 0
-1615 440 0
-1616 -441 0
1616 441 0
1531 -442 0
-1531 442 0
1617 -443 0
-1617 443 0
1533 -444 0
-1533 444 0
1618 -445 0
-1618 445 0
-1619 -446 0
1619 446 0
-1620 -447 0
1620 447 0
1537 -448 0
-1537 448 0
1621 -449 0
-1621 449 0
1539 -450 0
-1539 450 0
1622 -451 0
-1622 451 0
-1623 -452 0
1623 452 0
1542 -453 0
-1542 453 0
1624 -454 0
-1624 454 0
1544 -455 0
-1544 455 0
1625 -456 0
-1625 456 0
-1626 -457 0
1626 457 0
-1627 -458 0
1627 458 0
-1628 -459 0
1628 459 0
1549 -460 0
-1549 460 0
1629 -461 0
-1629 461 0
1550 -462 0
-1550 462 0
1630 -463 0
-1630 463 0
-1631 -464 0
1631 464 0
1553 -465 0
-1553 465 0
1632 -466 0
-1632 466 0
1555 -467 0
-1555 467 0
1633 -468 0
-1633 468 0
-1634 -469 0
1634 469 0
-1635 -470 0
1635 470 0
1559 -471 0
-1559 471 0
1636 -472 0
-1636 472 0
1561 -473 0
-1561 473 0
1637 -474 0
-1637 474 0
-1638 -475 0
1638 475 0
1639 -477 0
-1639 477 0
1640 -478 0
-1640 478 0
1503 -479 0
-1503 479 0
1641 -480 0
-1641 480 0
-1642 -481 0
1642 481 0
-1643 -482 0
1643 482 0
-1644 -483 0
1644 483 0
-1645 -484 0
1645 484 0
-1646 -485 0
1646 485 0
1442 -487 0
-1442 487 0
487 0
-487 296 486 0
-296 293 -295 0
-293 290 -292 0
-290 287 -289 0
-287 282 -286 0
-282 278 -281 0
-278 274 -277 0
-274 270 -273 0
-270 266 -269 0
-266 262 -265 0
-262 258 -261 0
-258 254 -257 0
-254 250 -253 0
-250 246 -249 0
-246 242 -245 0
-242 239 -241 0
-239 236 -238 0
-236 230 -235 0
-230 226 -229 0
-226 220 -225 0
-220 216 -219 0
-216 206 -215 0
-206 202 -205 0
-202 198 -201 0
-198 194 -197 0
-194 190 -193 0
-190 180 -189 0
-180 176 -179 0
-176 172 -175 0
-172 168 -171 0
-168 164 -167 0
-164 161 -163 0
-161 158 -160 0
-158 154 -157 0
-154 150 -153 0
-150 145 -149 0
-145 142 -144 0
-142 139 -141 0
-139 135 -138 0
-135 131 -134 0
-131 128 -130 0
-128 125 -127 0
-125 121 -124 0
-121 118 -120 0
-118 115 -117 0
-115 111 -114 0
-111 107 -110 0
-107 103 -106 0
-103 99 -102 0
-99 95 -98 0
-95 91 -94 0
-91 87 -90 0
-87 83 -86 0
-83 79 -82 0
-79 75 -78 0
-75 71 -74 0
-71 67 -70 0
-67 63 -66 0
-63 59 -62 0
-59 55 -58 0
-55 51 -54 0
-51 47 -50 0
-47 43 -46 0
-43 39 -42 0
-39 35 -38 0
-35 31 -34 0
-31 27 -30 0
-27 23 -26 0
-23 19 -22 0
-19 15 -18 0
-15 11 -14 0
-11 7 -10 0
-7 -3 -6 0
1 -2 3 0
-1 2 3 0
4 -5 6 0
-4 5 6 0
8 -9 10 0
-8 9 10 0
12 13 14 0
-12 -13 14 0
-4 -8 13 0
-13 4 0
-13 8 0
16 -17 18 0
-16 17 18 0
20 -21 22 0
-20 21 22 0
24 25 26 0
-24 -25 26 0
-16 -20 25 0
-25 16 0
-25 20 0
28 29 30 0
-28 -29 30 0
-12 -24 29 0
-29 12 0
-29 24 0
32 33 34 0
-32 -33 34 0
-5 -8 33 0
-33 5 0
-33 8 0
36 37 38 0
-36 -37 38 0
-32 -24 37 0
-37 32 0
-37 24 0
40 41 42 0
-40 -41 42 0
-4 -9 41 0
-41 4 0
-41 9 0
44 45 46 0
-44 -45 46 0
-40 -24 45 0
-45 40 0
-45 24 0
48 49 50 0
-48 -49 50 0
-5 -9 49 0
-49 5 0
-49 9 0
52 53 54 0
-52 -53 54 0
-48 -24 53 0
-53 48 0
-53 24 0
56 57 58 0
-56 -57 58 0
-17 -20 57 0
-57 17 0
-57 20 0
60 61 62 0
-60 -61 62 0
-12 -56 61 0
-61 12 0
-61 56 0
64 65 66 0
-64 -65 66 0
-32 -56 65 0
-65 32 0
-65 56 0
68 69 70 0
-68 -69 70 0
-40 -56 69 0
-69 40 0
-69 56 0
72 73 74 0
-72 -73 74 0
-48 -56 73 0
-73 48 0
-73 56 0
76 77 78 0
-76 -77 78 0
-16 -21 77 0
-77 16 0
-77 21 0
80 81 82 0
-80 -81 82 0
-12 -76 81 0
-81 12 0
-81 76 0
84 85 86 0
-84 -85 86 0
-32 -76 85 0
-85 32 0
-85 76 0
88 89 90 0
-88 -89 90 0
-40 -76 89 0
-89 40 0
-89 76 0
92 93 94 0
-92 -93 94 0
-48 -76 93 0
-93 48 0
-93 76 0
96 97 98 0
-96 -97 98 0
-17 -21 97 0
-97 17 0
-97 21 0
100 101 102 0
-100 -101 102 0
-12 -96 101 0
-101 12 0
-101 96 0
104 105 106 0
-104 -105 106 0
-32 -96 105 0
-105 32 0
-105 96 0
108 109 110 0
-108 -109 110 0
-40 -96 109 0
-109 40 0
-109 96 0
112 113 114 0
-112 -113 114 0
-48 -96 113 0
-113 48 0
-113 96 0
116 -5 117 0
-116 5 117 0
119 -9 120 0
-119 9 120 0
122 123 124 0
-122 -123 124 0
-116 -119 123 0
-123 116 0
-123 119 0
126 -17 127 0
-126 17 127 0
129 -21 130 0
-129 21 130 0
132 133 134 0
-132 -133 134 0
-126 -129 133 0
-133 126 0
-133 129 0
136 137 138 0
-136 -137 138 0
-122 -132 137 0
-137 122 0
-137 132 0
140 136 141 0
-140 -136 141 0
143 -2 144 0
-143 2 144 0
146 148 149 0
-146 -148 149 0
-143 -147 148 0
-148 143 0
-148 147 0
151 152 153 0
-151 -152 153 0
-5 -119 152 0
-152 5 0
-152 119 0
155 156 157 0
-155 -156 157 0
-151 -132 156 0
-156 151 0
-156 132 0
159 155 160 0
-159 -155 160 0
162 143 163 0
-162 -143 163 0
165 166 167 0
-165 -166 167 0
169 170 171 0
-169 -170 171 0
-17 -129 170 0
-170 17 0
-170 129 0
173 174 175 0
-173 -174 175 0
-122 -169 174 0
-174 122 0
-174 169 0
177 178 179 0
-177 -178 179 0
-151 -169 178 0
-178 151 0
-178 169 0
181 188 189 0
-181 -188 189 0
-184 187 188 0
184 -187 188 0
-184 -187 188 0
-183 -173 184 0
-143 -182 183 0
-186 -177 187 0
-143 -185 186 0
-188 184 187 0
-184 183 0
-184 173 0
-183 143 0
-183 182 0
-187 186 0
-187 177 0
-186 143 0
-186 185 0
191 192 193 0
-191 -192 193 0
-116 -9 192 0
-192 116 0
-192 9 0
195 196 197 0
-195 -196 197 0
-191 -169 196 0
-196 191 0
-196 169 0
199 -200 201 0
-199 200 201 0
-200 5 0
-200 9 0
-5 -9 200 0
203 204 205 0
-203 -204 205 0
-199 -169 204 0
-204 199 0
-204 169 0
207 214 215 0
-207 -214 215 0
-210 213 214 0
210 -213 214 0
-210 -213 214 0
-209 -195 210 0
-143 -208 209 0
-212 -203 213 0
-143 -211 212 0
-214 210 213 0
-210 209 0
-210 195 0
-209 143 0
-209 208 0
-213 212 0
-213 203 0
-212 143 0
-212 211 0
217 218 219 0
-217 -218 219 0
-191 -132 218 0
-218 191 0
-218 132 0
221 224 225 0
-221 -224 225 0
-223 -217 224 0
-143 -222 223 0
-224 223 0
-224 217 0
-223 143 0
-223 222 0
227 228 229 0
-227 -228 229 0
-199 -132 228 0
-228 199 0
-228 132 0
231 234 235 0
-231 -234 235 0
-233 -227 234 0
-143 -232 233 0
-234 233 0
-234 227 0
-233 143 0
-233 232 0
237 119 238 0
-237 -119 238 0
240 126 241 0
-240 -126 241 0
243 244 245 0
-243 -244 245 0
-126 -21 244 0
-244 126 0
-244 21 0
247 248 249 0
-247 -248 249 0
-151 -243 248 0
-248 151 0
-248 243 0
251 252 253 0
-251 -252 253 0
-191 -243 252 0
-252 191 0
-252 243 0
255 256 257 0
-255 -256 257 0
-199 -243 256 0
-256 199 0
-256 243 0
259 260 261 0
-259 -260 261 0
-17 -21 260 0
-260 17 0
-260 21 0
263 264 265 0
-263 -264 265 0
-122 -259 264 0
-264 122 0
-264 259 0
267 268 269 0
-267 -268 269 0
-151 -259 268 0
-268 151 0
-268 259 0
271 272 273 0
-271 -272 273 0
-191 -259 272 0
-272 191 0
-272 259 0
275 276 277 0
-275 -276 277 0
-199 -259 276 0
-276 199 0
-276 259 0
279 280 281 0
-279 -280 281 0
283 285 286 0
-283 -285 286 0
-2 -284 285 0
-285 2 0
-285 284 0
288 275 289 0
-288 -275 289 0
291 191 292 0
-291 -191 292 0
294 259 295 0
-294 -259 295 0
-486 -388 485 0
-486 388 -485 0
-388 330 387 0
-330 297 329 0
-329 313 328 0
-313 305 312 0
-305 301 304 0
-301 299 0
-301 300 0
-299 143 0
-299 298 0
-304 303 0
-304 247 0
-303 143 0
-303 302 0
-312 308 311 0
-308 307 0
-308 251 0
-307 143 0
-307 306 0
-311 310 0
-311 255 0
-310 143 0
-310 309 0
-328 320 327 0
-320 316 319 0
-316 315 0
-316 263 0
-315 143 0
-315 314 0
-319 318 0
-319 267 0
-318 143 0
-318 317 0
-327 323 326 0
-323 322 0
-323 271 0
-322 143 0
-322 321 0
-326 325 0
-326 275 0
-325 143 0
-325 324 0
-387 361 386 0
-361 345 360 0
-345 337 344 0
-337 333 336 0
-333 332 0
-333 136 0
-332 2 0
-332 331 0
-336 335 0
-336 155 0
-335 2 0
-335 334 0
-344 340 343 0
-340 339 0
-340 217 0
-339 2 0
-339 338 0
-343 342 0
-343 227 0
-342 2 0
-342 341 0
-360 352 359 0
-352 348 351 0
-348 347 0
-348 173 0
-347 2 0
-347 346 0
-351 350 0
-351 177 0
-350 2 0
-350 349 0
-359 355 358 0
-355 354 0
-355 195 0
-354 2 0
-354 353 0
-358 357 0
-358 203 0
-357 2 0
-357 356 0
-386 376 385 0
-376 368 375 0
-368 364 367 0
-364 363 0
-364 300 0
-363 2 0
-363 362 0
-367 366 0
-367 247 0
-366 2 0
-366 365 0
-375 371 374 0
-371 370 0
-371 251 0
-370 2 0
-370 369 0
-374 373 0
-374 255 0
-373 2 0
-373 372 0
-385 383 384 0
-383 379 382 0
-379 378 0
-379 263 0
-378 2 0
-378 377 0
-382 381 0
-382 267 0
-381 2 0
-381 380 0
-485 436 484 0
-436 412 435 0
-412 400 411 0
-400 394 399 0
-394 391 393 0
-391 390 0
-391 28 0
-390 1 0
-390 389 0
-393 392 0
-393 36 0
-392 1 0
-392 147 0
-399 396 398 0
-396 395 0
-396 44 0
-395 1 0
-395 222 0
-398 397 0
-398 52 0
-397 1 0
-397 232 0
-411 405 410 0
-405 402 404 0
-402 401 0
-402 60 0
-401 1 0
-401 182 0
-404 403 0
-404 64 0
-403 1 0
-403 185 0
-410 407 409 0
-407 406 0
-407 68 0
-406 1 0
-406 208 0
-409 408 0
-409 72 0
-408 1 0
-408 211 0
-435 423 434 0
-423 417 422 0
-417 414 416 0
-414 413 0
-414 80 0
-413 1 0
-413 298 0
-416 415 0
-416 84 0
-415 1 0
-415 302 0
-422 419 421 0
-419 418 0
-419 88 0
-418 1 0
-418 306 0
-421 420 0
-421 92 0
-420 1 0
-420 309 0
-434 428 433 0
-428 425 427 0
-425 424 0
-425 100 0
-424 1 0
-424 314 0
-427 426 0
-427 104 0
-426 1 0
-426 317 0
-433 430 432 0
-430 429 0
-430 108 0
-429 1 0
-429 321 0
-432 431 0
-432 112 0
-431 1 0
-431 324 0
-484 459 483 0
-459 447 458 0
-447 441 446 0
-441 438 440 0
-438 437 0
-438 28 0
-437 2 0
-437 331 0
-440 439 0
-440 36 0
-439 2 0
-439 334 0
-446 443 445 0
-443 442 0
-443 44 0
-442 2 0
-442 338 0
-445 444 0
-445 52 0
-444 2 0
-444 341 0
-458 452 457 0
-452 449 451 0
-449 448 0
-449 60 0
-448 2 0
-448 346 0
-451 450 0
-451 64 0
-450 2 0
-450 349 0
-457 454 456 0
-454 453 0
-454 68 0
-453 2 0
-453 353 0
-456 455 0
-456 72 0
-455 2 0
-455 356 0
-483 470 482 0
-470 464 469 0
-464 461 463 0
-461 460 0
-461 80 0
-460 2 0
-460 362 0
-463 462 0
-463 84 0
-462 2 0
-462 365 0
-469 466 468 0
-466 465 0
-466 88 0
-465 2 0
-465 369 0
-468 467 0
-468 92 0
-467 2 0
-467 372 0
-482 475 481 0
-475 472 474 0
-472 471 0
-472 100 0
-471 2 0
-471 377 0
-474 473 0
-474 104 0
-473 2 0
-473 380 0
-481 478 480 0
-478 477 0
-478 108 0
-477 2 0
-477 476 0
-480 479 0
-480 112 0
-479 2 0
-479 284 0
-330 387 388 0
330 -387 388 0
-330 -387 388 0
-297 329 330 0
297 -329 330 0
-297 -329 330 0
-313 328 329 0
313 -328 329 0
-313 -328 329 0
-305 312 313 0
305 -312 313 0
-305 -312 313 0
-301 304 305 0
301 -304 305 0
-301 -304 305 0
-299 -300 301 0
-143 -298 299 0
-303 -247 304 0
-143 -302 303 0
-308 311 312 0
308 -311 312 0
-308 -311 312 0
-307 -251 308 0
-143 -306 307 0
-310 -255 311 0
-143 -309 310 0
-320 327 328 0
320 -327 328 0
-320 -327 328 0
-316 319 320 0
316 -319 320 0
-316 -319 320 0
-315 -263 316 0
-143 -314 315 0
-318 -267 319 0
-143 -317 318 0
-323 326 327 0
323 -326 327 0
-323 -326 327 0
-322 -271 323 0
-143 -321 322 0
-325 -275 326 0
-143 -324 325 0
-361 386 387 0
361 -386 387 0
-361 -386 387 0
-345 360 361 0
345 -360 361 0
-345 -360 361 0
-337 344 345 0
337 -344 345 0
-337 -344 345 0
-333 336 337 0
333 -336 337 0
-333 -336 337 0
-332 -136 333 0
-2 -331 332 0
-335 -155 336 0
-2 -334 335 0
-340 343 344 0
340 -343 344 0
-340 -343 344 0
-339 -217 340 0
-2 -338 339 0
-342 -227 343 0
-2 -341 342 0
-352 359 360 0
352 -359 360 0
-352 -359 360 0
-348 351 352 0
348 -351 352 0
-348 -351 352 0
-347 -173 348 0
-2 -346 347 0
-350 -177 351 0
-2 -349 350 0
-355 358 359 0
355 -358 359 0
-355 -358 359 0
-354 -195 355 0
-2 -353 354 0
-357 -203 358 0
-2 -356 357 0
-376 385 386 0
376 -385 386 0
-376 -385 386 0
-368 375 376 0
368 -375 376 0
-368 -375 376 0
-364 367 368 0
364 -367 368 0
-364 -367 368 0
-363 -300 364 0
-2 -362 363 0
-366 -247 367 0
-2 -365 366 0
-371 374 375 0
371 -374 375 0
-371 -374 375 0
-370 -251 371 0
-2 -369 370 0
-373 -255 374 0
-2 -372 373 0
-383 384 385 0
383 -384 385 0
-383 -384 385 0
-379 382 383 0
379 -382 383 0
-379 -382 383 0
-378 -263 379 0
-2 -377 378 0
-381 -267 382 0
-2 -380 381 0
-436 484 485 0
436 -484 485 0
-436 -484 485 0
-412 435 436 0
412 -435 436 0
-412 -435 436 0
-400 411 412 0
400 -411 412 0
-400 -411 412 0
-394 399 400 0
394 -399 400 0
-394 -399 400 0
-391 393 394 0
391 -393 394 0
-391 -393 394 0
-390 -28 391 0
-1 -389 390 0
-392 -36 393 0
-1 -147 392 0
-396 398 399 0
396 -398 399 0
-396 -398 399 0
-395 -44 396 0
-1 -222 395 0
-397 -52 398 0
-1 -232 397 0
-405 410 411 0
405 -410 411 0
-405 -410 411 0
-402 404 405 0
402 -404 405 0
-402 -404 405 0
-401 -60 402 0
-1 -182 401 0
-403 -64 404 0
-1 -185 403 0
-407 409 410 0
407 -409 410 0
-407 -409 410 0
-406 -68 407 0
-1 -208 406 0
-408 -72 409 0
-1 -211 408 0
-423 434 435 0
423 -434 435 0
-423 -434 435 0
-417 422 423 0
417 -422 423 0
-417 -422 423 0
-414 416 417 0
414 -416 417 0
-414 -416 417 0
-413 -80 414 0
-1 -298 413 0
-415 -84 416 0
-1 -302 415 0
-419 421 422 0
419 -421 422 0
-419 -421 422 0
-418 -88 419 0
-1 -306 418 0
-420 -92 421 0
-1 -309 420 0
-428 433 434 0
428 -433 434 0
-428 -433 434 0
-425 427 428 0
425 -427 428 0
-425 -427 428 0
-424 -100 425 0
-1 -314 424 0
-426 -104 427 0
-1 -317 426 0
-430 432 433 0
430 -432 433 0
-430 -432 433 0
-429 -108 430 0
-1 -321 429 0
-431 -112 432 0
-1 -324 431 0
-459 483 484 0
459 -483 484 0
-459 -483 484 0
-447 458 459 0
447 -458 459 0
-447 -458 459 0
-441 446 447 0
441 -446 447 0
-441 -446 447 0
-438 440 441 0
438 -440 441 0
-438 -440 441 0
-437 -28 438 0
-2 -331 437 0
-439 -36 440 0
-2 -334 439 0
-443 445 446 0
443 -445 446 0
-443 -445 446 0
-442 -44 443 0
-2 -338 442 0
-444 -52 445 0
-2 -341 444 0
-452 457 458 0
452 -457 458 0
-452 -457 458 0
-449 451 452 0
449 -451 452 0
-449 -451 452 0
-448 -60 449 0
-2 -346 448 0
-450 -64 451 0
-2 -349 450 0
-454 456 457 0
454 -456 457 0
-454 -456 457 0
-453 -68 454 0
-2 -353 453 0
-455 -72 456 0
-2 -356 455 0
-470 482 483 0
470 -482 483 0
-470 -482 483 0
-464 469 470 0
464 -469 470 0
-464 -469 470 0
-461 463 464 0
461 -463 464 0
-461 -463 464 0
-460 -80 461 0
-2 -362 460 0
-462 -84 463 0
-2 -365 462 0
-466 468 469 0
466 -468 469 0
-466 -468 469 0
-465 -88 466 0
-2 -369 465 0
-467 -92 468 0
-2 -372 467 0
-475 481 482 0
475 -481 482 0
-475 -481 482 0
-472 474 475 0
472 -474 475 0
-472 -474 475 0
-471 -100 472 0
-2 -377 471 0
-473 -104 474 0
-2 -380 473 0
-478 480 481 0
478 -480 481 0
-478 -480 481 0
-477 -108 478 0
-2 -476 477 0
-479 -112 480 0
-2 -284 479 0
1442 0
4 -1443 0
8 -1443 0
-4 -8 1443 0
20 -1444 0
16 -1444 0
-20 -16 1444 0
24 -1445 0
12 -1445 0
-24 -12 1445 0
8 -1446 0
5 -1446 0
-8 -5 1446 0
32 -1447 0
24 -1447 0
-32 -24 1447 0
4 -1448 0
9 -1448 0
-4 -9 1448 0
40 -1449 0
24 -1449 0
-40 -24 1449 0
5 -1450 0
9 -1450 0
-5 -9 1450 0
48 -1451 0
24 -1451 0
-48 -24 1451 0
20 -1452 0
17 -1452 0
-20 -17 1452 0
56 -1453 0
12 -1453 0
-56 -12 1453 0
56 -1454 0
32 -1454 0
-56 -32 1454 0
56 -1455 0
40 -1455 0
-56 -40 1455 0
56 -1456 0
48 -1456 0
-56 -48 1456 0
16 -1457 0
21 -1457 0
-16 -21 1457 0
12 -1458 0
76 -1458 0
-12 -76 1458 0
32 -1459 0
76 -1459 0
-32 -76 1459 0
40 -1460 0
76 -1460 0
-40 -76 1460 0
48 -1461 0
76 -1461 0
-48 -76 1461 0
21 -1462 0
17 -1462 0
-21 -17 1462 0
12 -1463 0
96 -1463 0
-12 -96 1463 0
32 -1464 0
96 -1464 0
-32 -96 1464 0
40 -1465 0
96 -1465 0
-40 -96 1465 0
48 -1466 0
96 -1466 0
-48 -96 1466 0
116 -1467 0
119 -1467 0
-116 -119 1467 0
126 -1468 0
129 -1468 0
-126 -129 1468 0
132 -1469 0
122 -1469 0
-132 -122 1469 0
143 -1470 0
147 -1470 0
-143 -147 1470 0
5 -1471 0
119 -1471 0
-5 -119 1471 0
151 -1472 0
132 -1472 0
-151 -132 1472 0
17 -1473 0
129 -1473 0
-17 -129 1473 0
169 -1474 0
122 -1474 0
-169 -122 1474 0
169 -1475 0
151 -1475 0
-169 -151 1475 0
143 -1476 0
182 -1476 0
-143 -182 1476 0
173 -1477 0
183 -1477 0
-173 -183 1477 0
143 -1478 0
185 -1478 0
-143 -185 1478 0
177 -1479 0
186 -1479 0
-177 -186 1479 0
-184 -1480 0
-187 -1480 0
184 187 1480 0
9 -1481 0
116 -1481 0
-9 -116 1481 0
169 -1482 0
191 -1482 0
-169 -191 1482 0
169 -1483 0
199 -1483 0
-169 -199 1483 0
143 -1484 0
208 -1484 0
-143 -208 1484 0
195 -1485 0
209 -1485 0
-195 -209 1485 0
143 -1486 0
211 -1486 0
-143 -211 1486 0
203 -1487 0
212 -1487 0
-203 -212 1487 0
-210 -1488 0
-213 -1488 0
210 213 1488 0
191 -1489 0
132 -1489 0
-191 -132 1489 0
143 -1490 0
222 -1490 0
-143 -222 1490 0
217 -1491 0
223 -1491 0
-217 -223 1491 0
199 -1492 0
132 -1492 0
-199 -132 1492 0
143 -1493 0
232 -1493 0
-143 -232 1493 0
227 -1494 0
233 -1494 0
-227 -233 1494 0
21 -1495 0
126 -1495 0
-21 -126 1495 0
243 -1496 0
151 -1496 0
-243 -151 1496 0
243 -1497 0
191 -1497 0
-243 -191 1497 0
243 -1498 0
199 -1498 0
-243 -199 1498 0
259 -1499 0
122 -1499 0
-259 -122 1499 0
259 -1500 0
151 -1500 0
-259 -151 1500 0
259 -1501 0
191 -1501 0
-259 -191 1501 0
259 -1502 0
199 -1502 0
-259 -199 1502 0
284 -1503 0
2 -1503 0
-284 -2 1503 0
143 -1504 0
298 -1504 0
-143 -298 1504 0
302 -1505 0
143 -1505 0
-302 -143 1505 0
247 -1506 0
303 -1506 0
-247 -303 1506 0
-301 -1507 0
-304 -1507 0
301 304 1507 0
306 -1508 0
143 -1508 0
-306 -143 1508 0
251 -1509 0
307 -1509 0
-251 -307 1509 0
309 -1510 0
143 -1510 0
-309 -143 1510 0
255 -1511 0
310 -1511 0
-255 -310 1511 0
-308 -1512 0
-311 -1512 0
308 311 1512 0
-305 -1513 0
-312 -1513 0
305 312 1513 0
314 -1514 0
143 -1514 0
-314 -143 1514 0
263 -1515 0
315 -1515 0
-263 -315 1515 0
317 -1516 0
143 -1516 0
-317 -143 1516 0
267 -1517 0
318 -1517 0
-267 -318 1517 0
-316 -1518 0
-319 -1518 0
316 319 1518 0
321 -1519 0
143 -1519 0
-321 -143 1519 0
271 -1520 0
322 -1520 0
-271 -322 1520 0
324 -1521 0
143 -1521 0
-324 -143 1521 0
275 -1522 0
325 -1522 0
-275 -325 1522 0
-323 -1523 0
-326 -1523 0
323 326 1523 0
-320 -1524 0
-327 -1524 0
320 327 1524 0
-313 -1525 0
-328 -1525 0
313 328 1525 0
331 -1526 0
2 -1526 0
-331 -2 1526 0
136 -1527 0
332 -1527 0
-136 -332 1527 0
334 -1528 0
2 -1528 0
-334 -2 1528 0
155 -1529 0
335 -1529 0
-155 -335 1529 0
-333 -1530 0
-336 -1530 0
333 336 1530 0
338 -1531 0
2 -1531 0
-338 -2 1531 0
217 -1532 0
339 -1532 0
-217 -339 1532 0
341 -1533 0
2 -1533 0
-341 -2 1533 0
227 -1534 0
342 -1534 0
-227 -342 1534 0
-340 -1535 0
-343 -1535 0
340 343 1535 0
-337 -1536 0
-344 -1536 0
337 344 1536 0
346 -1537 0
2 -1537 0
-346 -2 1537 0
173 -1538 0
347 -1538 0
-173 -347 1538 0
349 -1539 0
2 -1539 0
-349 -2 1539 0
177 -1540 0
350 -1540 0
-177 -350 1540 0
-348 -1541 0
-351 -1541 0
348 351 1541 0
353 -1542 0
2 -1542 0
-353 -2 1542 0
195 -1543 0
354 -1543 0
-195 -354 1543 0
356 -1544 0
2 -1544 0
-356 -2 1544 0
203 -1545 0
357 -1545 0
-203 -357 1545 0
-355 -1546 0
-358 -1546 0
355 358 1546 0
-352 -1547 0
-359 -1547 0
352 359 1547 0
-345 -1548 0
1547 -1548 0
345 -1547 1548 0
362 -1549 0
2 -1549 0
-362 -2 1549 0
365 -1550 0
2 -1550 0
-365 -2 1550 0
247 -1551 0
366 -1551 0
-247 -366 1551 0
-364 -1552 0
-367 -1552 0
364 367 1552 0
369 -1553 0
2 -1553 0
-369 -2 1553 0
251 -1554 0
370 -1554 0
-251 -370 1554 0
372 -1555 0
2 -1555 0
-372 -2 1555 0
255 -1556 0
373 -1556 0
-255 -373 1556 0
-371 -1557 0
-374 -1557 0
371 374 1557 0
-368 -1558 0
-375 -1558 0
368 375 1558 0
377 -1559 0
2 -1559 0
-377 -2 1559 0
263 -1560 0
378 -1560 0
-263 -378 1560 0
380 -1561 0
2 -1561 0
-380 -2 1561 0
267 -1562 0
381 -1562 0
-267 -381 1562 0
-379 -1563 0
-382 -1563 0
379 382 1563 0
-376 -1564 0
-385 -1564 0
376 385 1564 0
-361 -1565 0
1564 -1565 0
361 -1564 1565 0
-330 -1566 0
-387 -1566 0
330 387 1566 0
1 -1567 0
389 -1567 0
-1 -389 1567 0
28 -1568 0
390 -1568 0
-28 -390 1568 0
1 -1569 0
147 -1569 0
-1 -147 1569 0
36 -1570 0
392 -1570 0
-36 -392 1570 0
-391 -1571 0
-393 -1571 0
391 393 1571 0
1 -1572 0
222 -1572 0
-1 -222 1572 0
44 -1573 0
395 -1573 0
-44 -395 1573 0
1 -1574 0
232 -1574 0
-1 -232 1574 0
52 -1575 0
397 -1575 0
-52 -397 1575 0
-396 -1576 0
-398 -1576 0
396 398 1576 0
-394 -1577 0
-399 -1577 0
394 399 1577 0
1 -1578 0
182 -1578 0
-1 -182 1578 0
60 -1579 0
401 -1579 0
-60 -401 1579 0
1 -1580 0
185 -1580 0
-1 -185 1580 0
64 -1581 0
403 -1581 0
-64 -403 1581 0
-402 -1582 0
-404 -1582 0
402 404 1582 0
1 -1583 0
208 -1583 0
-1 -208 1583 0
68 -1584 0
406 -1584 0
-68 -406 1584 0
1 -1585 0
211 -1585 0
-1 -211 1585 0
72 -1586 0
408 -1586 0
-72 -408 1586 0
-407 -1587 0
-409 -1587 0
407 409 1587 0
-405 -1588 0
-410 -1588 0
405 410 1588 0
-400 -1589 0
-411 -1589 0
400 411 1589 0
1 -1590 0
298 -1590 0
-1 -298 1590 0
80 -1591 0
413 -1591 0
-80 -413 1591 0
302 -1592 0
1 -1592 0
-302 -1 1592 0
84 -1593 0
415 -1593 0
-84 -415 1593 0
-414 -1594 0
-416 -1594 0
414 416 1594 0
306 -1595 0
1 -1595 0
-306 -1 1595 0
88 -1596 0
418 -1596 0
-88 -418 1596 0
309 -1597 0
1 -1597 0
-309 -1 1597 0
92 -1598 0
420 -1598 0
-92 -420 1598 0
-419 -1599 0
-421 -1599 0
419 421 1599 0
-417 -1600 0
-422 -1600 0
417 422 1600 0
314 -1601 0
1 -1601 0
-314 -1 1601 0
100 -1602 0
424 -1602 0
-100 -424 1602 0
317 -1603 0
1 -1603 0
-317 -1 1603 0
104 -1604 0
426 -1604 0
-104 -426 1604 0
-425 -1605 0
-427 -1605 0
425 427 1605 0
321 -1606 0
1 -1606 0
-321 -1 1606 0
108 -1607 0
429 -1607 0
-108 -429 1607 0
324 -1608 0
1 -1608 0
-324 -1 1608 0
112 -1609 0
431 -1609 0
-112 -431 1609 0
-430 -1610 0
-432 -1610 0
430 432 1610 0
-428 -1611 0
-433 -1611 0
428 433 1611 0
-423 -1612 0
1611 -1612 0
423 -1611 1612 0
-412 -1613 0
-435 -1613 0
412 435 1613 0
28 -1614 0
437 -1614 0
-28 -437 1614 0
36 -1615 0
439 -1615 0
-36 -439 1615 0
-438 -1616 0
-440 -1616 0
438 440 1616 0
44 -1617 0
442 -1617 0
-44 -442 1617 0
52 -1618 0
444 -1618 0
-52 -444 1618 0
-443 -1619 0
-445 -1619 0
443 445 1619 0
-441 -1620 0
-446 -1620 0
441 446 1620 0
60 -1621 0
448 -1621 0
-60 -448 1621 0
64 -1622 0
450 -1622 0
-64 -450 1622 0
-449 -1623 0
-451 -1623 0
449 451 1623 0
68 -1624 0
453 -1624 0
-68 -453 1624 0
72 -1625 0
455 -1625 0
-72 -455 1625 0
-454 -1626 0
-456 -1626 0
454 456 1626 0
-452 -1627 0
-457 -1627 0
452 457 1627 0
-447 -1628 0
-458 -1628 0
447 458 1628 0
80 -1629 0
460 -1629 0
-80 -460 1629 0
84 -1630 0
462 -1630 0
-84 -462 1630 0
-461 -1631 0
-463 -1631 0
461 463 1631 0
88 -1632 0
465 -1632 0
-88 -465 1632 0
92 -1633 0
467 -1633 0
-92 -467 1633 0
-466 -1634 0
-468 -1634 0
466 468 1634 0
-464 -1635 0
-469 -1635 0
464 469 1635 0
100 -1636 0
471 -1636 0
-100 -471 1636 0
104 -1637 0
473 -1637 0
-104 -473 1637 0
-472 -1638 0
-474 -1638 0
472 474 1638 0
476 -1639 0
2 -1639 0
-476 -2 1639 0
108 -1640 0
477 -1640 0
-108 -477 1640 0
112 -1641 0
479 -1641 0
-112 -479 1641 0
-478 -1642 0
-480 -1642 0
478 480 1642 0
-475 -1643 0
-481 -1643 0
475 481 1643 0
-470 -1644 0
1643 -1644 0
470 -1643 1644 0
-459 -1645 0
-483 -1645 0
459 483 1645 0
-436 -1646 0
1645 -1646 0
436 -1645 1646 0
